200
1000
396
396
396
396
395
394
394
393
393
393
392
392
392
391
391
391
389
388
388
388
387
387
385
385
384
384
384
383
383
383
382
382
382
382
381
380
380
379
378
378
377
375
375
375
374
371
370
370
369
368
368
365
365
364
363
362
361
361
360
359
357
356
355
354
353
353
353
352
352
352
351
351
351
350
350
349
348
347
347
346
345
345
345
344
343
342
341
340
340
339
338
338
338
337
336
335
335
335
334
334
332
331
331
331
330
330
329
327
327
326
326
325
325
325
325
324
323
323
322
322
321
319
318
316
316
315
314
313
313
312
311
311
310
310
310
310
309
309
306
304
304
303
303
302
302
301
301
300
299
299
297
297
297
293
293
293
291
291
290
290
290
288
287
286
286
285
284
284
283
283
283
283
282
282
282
280
279
278
278
278
278
278
277
276
276
275
275
274
273
273
271
271
271
269
269
268
268
267
266
266
